\ENCODING=ISO-8859-1
\Problem name: ilog.cplex

Minimize
 obj: 13 x1 + 13 x2 + 13 x3 + 9.5 x4 + 9.5 x5 + 9.3 x6 + 7.2 x7 + 7.2 x8
      + 7.2 x9
Subject To
 c1: x1 + x2 + x3 + x4 + x5 + x6 + x7 + x8 + x9 >= 187
Bounds
 12 <= x1 <= 22
 12 <= x2 <= 22
 15 <= x3 <= 23
 17.8 <= x4 <= 27.8
 17.8 <= x5 <= 27.8
 17.9 <= x6 <= 28.8
 19 <= x7 <= 29
 19 <= x8 <= 29
 19 <= x9 <= 29
Semi-Continuous
 x1  x2  x3  x4  x5  x6  x7  x8  x9 
End
